Set parameter TSPort to value 51199
Set parameter TokenServer to value "open-license1.lanl.gov"
Set parameter TimeLimit to value 8192
Set parameter Threads to value 1
Gurobi Optimizer version 10.0.3 build v10.0.3rc0 (linux64)

CPU model: Intel(R) Xeon(R) CPU E5-2695 v4 @ 2.10GHz, instruction set [SSE2|AVX|AVX2]
Thread count: 36 physical cores, 72 logical processors, using up to 1 threads

Optimize a model with 0 rows, 2897 columns and 0 nonzeros
Model fingerprint: 0xef41fc9c
Model has 13438 quadratic objective terms
Variable types: 0 continuous, 2897 integer (2897 binary)
Coefficient statistics:
  Matrix range     [0e+00, 0e+00]
  Objective range  [2e+00, 3e+01]
  QObjective range [8e+00, 8e+00]
  Bounds range     [1e+00, 1e+00]
  RHS range        [0e+00, 0e+00]
Found heuristic solution: objective 0.0000000
Found heuristic solution: objective -4876.000000
Found heuristic solution: objective -18070.00000
Found heuristic solution: objective -18112.00000
Presolve removed 0 rows and 1 columns
Presolve time: 0.40s
Presolved: 13437 rows, 16333 columns, 40311 nonzeros
Variable types: 0 continuous, 16333 integer (16333 binary)

Root relaxation: objective -2.525600e+04, 4125 iterations, 0.06 seconds (0.03 work units)

    Nodes    |    Current Node    |     Objective Bounds      |     Work
 Expl Unexpl |  Obj  Depth IntInf | Incumbent    BestBd   Gap | It/Node Time

     0     0 -25256.000    0 2896 -18112.000 -25256.000  39.4%     -    0s
     0     0 -23599.000    0 3702 -18112.000 -23599.000  30.3%     -    1s
     0     0 -23341.000    0 3859 -18112.000 -23341.000  28.9%     -    1s
     0     0 -23330.000    0 3860 -18112.000 -23330.000  28.8%     -    1s
     0     0 -23007.000    0 4082 -18112.000 -23007.000  27.0%     -    2s
     0     0 -23007.000    0 4051 -18112.000 -23007.000  27.0%     -    2s
     0     2 -23006.500    0 4045 -18112.000 -23006.500  27.0%     -    3s
    60    62 -22721.000   30 4328 -18112.000 -22997.000  27.0%   161    5s
   310   312 -21652.500  155 4992 -18112.000 -22997.000  27.0%   103   10s
   547   549 -20779.000  274 5387 -18112.000 -22997.000  27.0%  94.9   15s
   802   804 -19936.500  402 5687 -18112.000 -22997.000  27.0%  84.6   20s
   909   911 -19600.000  455 5706 -18112.000 -22997.000  27.0%  81.2   25s
  1162  1164 -19022.000  584 5636 -18112.000 -22997.000  27.0%  74.6   30s
H 1170  1170                    -18116.00000 -22997.000  26.9%  74.6   30s
H 1404  1404                    -18118.00000 -22997.000  26.9%  71.3   34s
  1434  1436 -18398.500  720 5361 -18118.000 -22997.000  26.9%  71.0   35s
H 1560  1560                    -18124.00000 -22997.000  26.9%  68.4   38s
H 1586  1586                    -18130.00000 -22997.000  26.8%  68.0   38s
H 1612  1582                    -18142.00000 -22997.000  26.8%  67.3   38s
  1620  1579 -18897.000  612 6719 -18142.000 -22996.500  26.8%  67.1   41s
  1624  1582 -19057.000  579 4354 -18142.000 -22469.889  23.9%  67.0   45s
  1626  1583 -19342.000  503 5049 -18142.000 -21850.576  20.4%  66.9   51s
  1634  1588 -20096.000  376 5550 -18142.000 -21446.588  18.2%  66.5   64s
  1635  1589 -18818.500  628 6043 -18142.000 -21328.535  17.6%  66.5   79s
  1636  1590 -21291.633   63 6321 -18142.000 -21291.633  17.4%  66.5   96s
  1637  1590 -19133.000  552 6406 -18142.000 -21280.084  17.3%  66.4  105s
  1638  1591 -20026.167  387 6509 -18142.000 -21276.657  17.3%  66.4  110s
H 1647  1516                    -18148.00000 -20969.875  15.5%  66.0  187s
  1649  1517 -18981.000  593 7697 -18148.000 -20877.890  15.0%  65.9  254s
  1650  1518 -18273.000  759 7939 -18148.000 -20850.099  14.9%  65.9  296s
  1651  1519 -18383.500  724 8150 -18148.000 -20841.606  14.8%  65.9  310s
  1652  1519 -20837.827  134 8226 -18148.000 -20837.827  14.8%  65.8  318s
  1653  1520 -20026.833  387 8363 -18148.000 -20836.311  14.8%  65.8  324s
  1654  1521 -19829.500  420 8477 -18148.000 -20835.475  14.8%  65.7  328s
  1656  1522 -18710.500  655 8486 -18148.000 -20835.255  14.8%  65.7  330s
  1660  1525 -19862.500  413 9035 -18148.000 -20606.803  13.5%  65.5  470s
  1661  1525 -18844.000  624 9362 -18148.000 -20546.695  13.2%  65.5  577s
  1662  1526 -18355.500  732 9521 -18148.000 -20527.110  13.1%  65.4  643s
  1663  1527 -19067.000  577 9669 -18148.000 -20521.143  13.1%  65.4  666s
  1664  1527 -20082.000  378 9766 -18148.000 -20518.484  13.1%  65.3  681s
  1665  1528 -20517.826  302 9863 -18148.000 -20517.826  13.1%  65.3  687s
  1666  1529 -20517.435  245 9958 -18148.000 -20517.435  13.1%  65.3  692s
  1667  1529 -20082.000  378 10045 -18148.000 -20517.226  13.1%  65.2  695s
  1673  1533 -18281.500  755 10090 -18148.000 -20517.108  13.1%  65.0  701s
  1674  1534 -19111.000  557 10499 -18148.000 -20350.012  12.1%  65.0  882s
  1675  1535 -19957.000  399 11101 -18148.000 -20308.206  11.9%  64.9 1015s
  1676  1535 -20294.305   98 11321 -18148.000 -20294.305  11.8%  64.9 1098s
  1677  1536 -20291.071  186 11476 -18148.000 -20291.071  11.8%  64.8 1125s
  1678  1537 -18223.000  772 11486 -18148.000 -20289.939  11.8%  64.8 1137s
  1679  1537 -20106.000  375 11559 -18148.000 -20289.506  11.8%  64.8 1144s
  1680  1538 -19627.500  452 11595 -18148.000 -20289.334  11.8%  64.7 1148s
  1681  1539 -18991.000  591 11691 -18148.000 -20289.266  11.8%  64.7 1151s
  1684  1541 -20289.200  193 11709 -18148.000 -20289.200  11.8%  64.6 1155s
  1686  1542 -18957.000  600 12217 -18148.000 -20153.060  11.0%  64.5 1404s
  1687  1543 -18216.000  773 12363 -18148.000 -20125.636  10.9%  64.5 1541s
  1688  1543 -19938.500  402 12540 -18148.000 -20117.821  10.9%  64.4 1622s
  1689  1544 -19449.000  484 12651 -18148.000 -20115.386  10.8%  64.4 1652s
  1690  1545 -19111.000  557 12779 -18148.000 -20114.580  10.8%  64.3 1666s
  1691  1545 -18394.500  721 12795 -18148.000 -20114.213  10.8%  64.3 1679s
  1692  1546 -19214.000  529 12861 -18148.000 -20114.024  10.8%  64.3 1683s
  1693  1547 -20113.958  298 12856 -18148.000 -20113.958  10.8%  64.2 1685s
  1696  1549 -19761.500  430 12867 -18148.000 -20113.906  10.8%  64.1 1692s
H 1696  1470                    -18152.00000 -20049.644  10.5%  64.1 1898s
  1698  1471 -20034.602  143 13082 -18152.000 -20034.602  10.4%  64.0 2021s
  1699  1472 -19767.500  429 13212 -18152.000 -20031.588  10.4%  64.0 2059s
  1700  1472 -18490.000  703 13331 -18152.000 -20030.767  10.4%  64.0 2076s
  1701  1473 -20030.427  347 13337 -18152.000 -20030.427  10.3%  63.9 2085s
  1702  1474 -18171.500  786 13323 -18152.000 -20030.246  10.3%  63.9 2094s
  1703  1474 -18345.500  737 13329 -18152.000 -20030.169  10.3%  63.8 2099s
  1704  1475 -19692.500  442 13360 -18152.000 -20030.139  10.3%  63.8 2102s
  1705  1476 -18230.000  769 13346 -18152.000 -20030.111  10.3%  63.8 2105s
  1709  1478 -18153.500  792 13381 -18152.000 -20030.073  10.3%  63.6 2112s
  1710  1479 -19711.500  439 13192 -18152.000 -19972.839  10.0%  63.6 2332s
  1711  1480 -19960.172  388 13305 -18152.000 -19960.172  10.0%  63.6 2463s
  1712  1480 -19957.427  210 13559 -18152.000 -19957.427  9.95%  63.5 2506s
  1713  1481 -19956.501  280 13530 -18152.000 -19956.501  9.94%  63.5 2528s
  1714  1482 -19956.016   88 13578 -18152.000 -19956.016  9.94%  63.4 2546s
  1715  1482 -18809.500  630 13624 -18152.000 -19955.829  9.94%  63.4 2554s
  1716  1483 -19905.500  407 13661 -18152.000 -19955.732  9.94%  63.4 2559s
  1717  1484 -19861.500  413 13668 -18152.000 -19955.664  9.94%  63.3 2565s
  1719  1485 -19955.640   59 13709 -18152.000 -19955.640  9.94%  63.3 2570s
  1721  1486 -19108.000  559 13628 -18152.000 -19920.126  9.74%  63.2 2784s
  1722  1487 -19912.292  337 13696 -18152.000 -19912.292  9.70%  63.1 2892s
  1723  1488 -19910.827  343 13801 -18152.000 -19910.827  9.69%  63.1 2923s
  1724  1488 -19057.000  579 13840 -18152.000 -19910.279  9.69%  63.1 2939s
  1725  1489 -19910.037  297 13850 -18152.000 -19910.037  9.69%  63.0 2948s
  1726  1490 -19342.000  503 13884 -18152.000 -19909.990  9.68%  63.0 2952s
  1728  1491 -19909.972  318 13888 -18152.000 -19909.972  9.68%  62.9 2957s
  1729  1492 -19874.810  238 13768 -18152.000 -19874.810  9.49%  62.9 3182s
  1730  1492 -19307.000  512 13900 -18152.000 -19866.755  9.45%  62.9 3301s
  1731  1493 -19865.105  155 13940 -18152.000 -19865.105  9.44%  62.8 3337s
  1732  1494 -19864.654   12 13993 -18152.000 -19864.654  9.44%  62.8 3351s
  1733  1494 -18651.000  668 14015 -18152.000 -19864.452  9.43%  62.7 3359s
  1734  1495 -19864.401  376 14016 -18152.000 -19864.401  9.43%  62.7 3363s
  1735  1496 -18818.500  628 14036 -18152.000 -19864.385  9.43%  62.7 3366s
  1736  1496 -19864.381   63 14049 -18152.000 -19864.381  9.43%  62.6 3370s
  1737  1497 -19133.000  552 13906 -18152.000 -19840.441  9.30%  62.6 3563s
  1738  1498 -19834.302  387 13983 -18152.000 -19834.302  9.27%  62.6 3668s
  1739  1498 -19445.000  485 14050 -18152.000 -19833.379  9.26%  62.5 3695s
  1740  1499 -19833.061  285 14080 -18152.000 -19833.061  9.26%  62.5 3710s
  1741  1500 -19832.950  367 14106 -18152.000 -19832.950  9.26%  62.5 3718s
  1742  1500 -18353.500  734 14126 -18152.000 -19832.908  9.26%  62.4 3722s
  1744  1502 -19832.891  161 14142 -18152.000 -19832.891  9.26%  62.3 3725s
  1746  1503 -19813.690  404 14014 -18152.000 -19813.690  9.15%  62.3 3900s
  1747  1504 -19809.934   14 14129 -18152.000 -19809.934  9.13%  62.2 3982s
  1748  1504 -19809.257   50 14193 -18152.000 -19809.257  9.13%  62.2 4010s
  1749  1505 -18981.000  593 14237 -18152.000 -19809.087  9.13%  62.2 4020s
  1750  1506 -18273.000  759 14237 -18152.000 -19809.041  9.13%  62.1 4025s
  1752  1507 -19809.024  134 14268 -18152.000 -19809.024  9.13%  62.1 4032s
  1753  1508 -19794.805  387 14088 -18152.000 -19794.805  9.05%  62.0 4198s
  1754  1508 -19790.536  420 14201 -18152.000 -19790.536  9.03%  62.0 4289s
  1755  1509 -19789.863   51 14230 -18152.000 -19789.863  9.02%  62.0 4311s
  1756  1510 -18710.500  655 14229 -18152.000 -19789.496  9.02%  61.9 4328s
  1757  1510 -19789.296  335 14250 -18152.000 -19789.296  9.02%  61.9 4337s
  1758  1511 -18537.000  693 14270 -18152.000 -19789.239  9.02%  61.9 4341s
  1760  1512 -19789.219  413 14279 -18152.000 -19789.219  9.02%  61.8 4346s
  1762  1514 -18355.500  732 14208 -18152.000 -19775.751  8.95%  61.7 4501s
  1763  1514 -19067.000  577 14293 -18152.000 -19772.576  8.93%  61.7 4570s
  1764  1515 -19771.917  378 14323 -18152.000 -19771.917  8.92%  61.6 4592s
  1765  1516 -19771.726  302 14363 -18152.000 -19771.726  8.92%  61.6 4602s
  1766  1516 -19771.668  245 14379 -18152.000 -19771.668  8.92%  61.6 4609s
  1767  1517 -19771.647  378 14398 -18152.000 -19771.647  8.92%  61.5 4612s
  1769  1518 -19771.640  230 14402 -18152.000 -19771.640  8.92%  61.5 4615s
  1770  1519 -19758.963   49 14308 -18152.000 -19758.963  8.85%  61.4 4775s
  1771  1520 -19755.752  394 14338 -18152.000 -19755.752  8.84%  61.4 4852s
  1772  1520 -19390.000  494 14398 -18152.000 -19755.235  8.83%  61.4 4872s
  1773  1521 -18281.500  755 14450 -18152.000 -19755.062  8.83%  61.3 4885s
  1774  1522 -19111.000  557 14453 -18152.000 -19755.003  8.83%  61.3 4892s
  1775  1522 -19754.980  399 14464 -18152.000 -19754.980  8.83%  61.3 4896s
  1777  1524 -19754.947  186 14463 -18152.000 -19754.947  8.83%  61.2 4902s
  1779  1525 -19743.919  375 14259 -18152.000 -19743.919  8.77%  61.1 5053s
  1780  1526 -19627.500  452 14386 -18152.000 -19741.277  8.76%  61.1 5123s
  1781  1526 -18991.000  591 14428 -18152.000 -19740.580  8.75%  61.1 5152s
  1782  1527 -18261.000  762 14460 -18152.000 -19740.351  8.75%  61.0 5165s
  1783  1528 -18681.500  661 14463 -18152.000 -19740.266  8.75%  61.0 5172s
  1784  1528 -19740.241  193 14484 -18152.000 -19740.241  8.75%  61.0 5176s
  1786  1530 -18957.000  600 14490 -18152.000 -19740.227  8.75%  60.9 5180s
  1787  1530 -18216.000  773 14338 -18152.000 -19730.573  8.70%  60.8 5314s
  1788  1531 -19728.157  402 14458 -18152.000 -19728.157  8.68%  60.8 5376s
  1789  1532 -19449.000  484 14472 -18152.000 -19727.650  8.68%  60.8 5403s
  1790  1532 -19111.000  557 14492 -18152.000 -19727.491  8.68%  60.7 5415s
  1791  1533 -18394.500  721 14505 -18152.000 -19727.261  8.68%  60.7 5427s
  1792  1534 -19214.000  529 14509 -18152.000 -19727.151  8.68%  60.7 5436s
  1794  1535 -19727.110  420 14542 -18152.000 -19727.110  8.68%  60.6 5442s
  1796  1536 -19718.769  430 14432 -18152.000 -19718.769  8.63%  60.5 5580s
  1797  1537 -19716.375  137 14475 -18152.000 -19716.375  8.62%  60.5 5650s
  1798  1538 -19715.964  143 14522 -18152.000 -19715.964  8.62%  60.5 5669s
  1799  1538 -19715.860  429 14534 -18152.000 -19715.860  8.62%  60.4 5678s
  1800  1539 -18490.000  703 14548 -18152.000 -19715.812  8.62%  60.4 5685s
  1802  1540 -18171.500  786 14577 -18152.000 -19715.777  8.61%  60.3 5692s
  1804  1542 -19692.500  442 14494 -18152.000 -19707.592  8.57%  60.3 5831s
  1805  1542 -18230.000  769 14523 -18152.000 -19705.608  8.56%  60.2 5894s
  1806  1543 -19705.223  151 14607 -18152.000 -19705.223  8.56%  60.2 5917s
  1807  1544 -19620.500  453 14632 -18152.000 -19705.124  8.56%  60.2 5927s
  1808  1544 -19518.000  471 14664 -18152.000 -19705.086  8.56%  60.1 5932s
  1809  1545 -18153.500  792 14676 -18152.000 -19705.074  8.56%  60.1 5935s
  1812  1547 -19696.114  210 14527 -18152.000 -19696.114  8.51%  60.0 6090s
  1813  1548 -19693.930  280 14604 -18152.000 -19693.930  8.49%  60.0 6161s
  1814  1548 -19693.498   88 14646 -18152.000 -19693.498  8.49%  59.9 6184s
  1815  1549 -18809.500  630 14639 -18152.000 -19693.294  8.49%  59.9 6198s
  1816  1550 -19693.080  407 14653 -18152.000 -19693.080  8.49%  59.9 6212s
  1817  1550 -19693.003  413 14678 -18152.000 -19693.003  8.49%  59.8 6219s
  1818  1551 -19692.985  343 14686 -18152.000 -19692.985  8.49%  59.8 6223s
  1820  1552 -18897.000  612 14703 -18152.000 -19692.977  8.49%  59.7 6226s
  1826  1556 -19342.000  503 14701 -18152.000 -19692.974  8.49%  59.5 6230s
  1834  1563 -19692.974  376 5126 -18152.000 -19692.974  8.49%  1856 6239s
  1835  1564 -18818.500  628 6335 -18152.000 -19692.974  8.49%  1855 6263s
  1836  1565 -19692.974   63 7993 -18152.000 -19692.974  8.49%  1853 6345s
  1837  1565 -19133.000  552 9549 -18152.000 -19692.974  8.49%  1852 6498s
  1838  1566 -19692.974  387 11139 -18152.000 -19692.974  8.49%  1851 6689s
  1839  1567 -19445.000  485 12812 -18152.000 -19692.974  8.49%  1850 6976s
  1840  1567 -19692.974  285 13804 -18152.000 -19692.974  8.49%  1849 7304s
  1841  1568 -19692.974  367 14267 -18152.000 -19692.974  8.49%  1848 7602s
  1842  1569 -18353.500  734 14460 -18152.000 -19692.974  8.49%  1847 7751s
  1843  1569 -19692.974  368 14512 -18152.000 -19692.974  8.49%  1846 7827s
  1844  1570 -19692.974  161 14572 -18152.000 -19692.974  8.49%  1845 7856s
  1845  1571 -19499.000  475 14615 -18152.000 -19692.974  8.49%  1844 7873s
  1846  1571 -19692.974  404 14646 -18152.000 -19692.974  8.49%  1843 7879s
  1847  1572 -19692.974   14 14654 -18152.000 -19692.974  8.49%  1842 7884s
  1848  1573 -19692.974   50 14674 -18152.000 -19692.974  8.49%  1841 7886s
  1850  1574 -18273.000  759 14667 -18152.000 -19692.974  8.49%  1839 7891s
  1851  1575 -18383.500  724 14575 -18152.000 -19677.723  8.41%  1838 8100s
  1852  1575 -19675.892  134 14569 -18152.000 -19675.892  8.40%  1837 8159s
  1853  1576 -19675.561  387 14587 -18152.000 -19675.561  8.39%  1836 8178s
  1854  1577 -19675.432  420 14633 -18152.000 -19675.432  8.39%  1835 8189s

Cutting planes:
  Gomory: 88
  MIR: 530
  Flow cover: 5079
  Zero half: 1822
  Mod-K: 83
  RLT: 631
  BQP: 893

Explored 1854 nodes (4516564 simplex iterations) in 8192.00 seconds (13043.82 work units)
Thread count was 1 (of 72 available processors)

Solution count 10: -18152 -18148 -18142 ... -4876

Time limit reached
Best objective -1.815200000000e+04, best bound -1.967400000000e+04, gap 8.3848%

User-callback calls 22013, time in user-callback 0.09 sec

BQP_SOLUTION, 2897, 13438, -6334.000000, 8192.001086, -1, 1, -1, 1, -1, 1, -1, -1, -1, 1, -1, 1, -1, 1, 1, -1, 1, -1, 1, 1, -1, 1, -1, 1, -1, 1, -1, 1, 1, -1, 1, -1, 1, -1, 1, 1, 1, 1, 1, 1, -1, 1, -1, -1, -1, -1, 1, 1, 1, -1, 1, -1, 1, -1, 1, -1, 1, -1, 1, 1, 1, -1, 1, -1, -1, -1, -1, 1, 1, -1, 1, -1, -1, -1, 1, -1, -1, -1, -1, 1, 1, 1, -1, 1, -1, -1, -1, 1, -1, -1, 1, -1, 1, -1, 1, -1, -1, -1, -1, -1, -1, 1, -1, 1, -1, -1, -1, -1, 1, -1, -1, -1, 1, 1, -1, 1, 1, -1, -1, 1, -1, -1, -1, 1, 1, 1, 1, 1, -1, -1, 1, -1, -1, 1, 1, -1, 1, -1, 1, -1, 1, -1, -1, -1, 1, 1, 1, 1, 1, -1, -1, -1, -1, 1, 1, 1, 1, -1, 1, -1, -1, -1, 1, 1, 1, -1, 1, 1, -1, 1, -1, -1, -1, 1, -1, 1, 1, 1, 1, -1, 1, 1, -1, -1, 1, 1, -1, -1, 1, -1, 1, 1, 1, -1, -1, -1, 1, 1, 1, 1, 1, -1, 1, 1, -1, -1, -1, 1, 1, -1, 1, 1, -1, 1, -1, 1, -1, 1, -1, 1, 1, -1, 1, -1, 1, 1, 1, -1, -1, 1, 1, -1, 1, 1, 1, -1, 1, -1, -1, -1, 1, 1, 1, 1, 1, -1, 1, -1, 1, -1, -1, 1, 1, 1, -1, 1, 1, 1, -1, 1, -1, 1, 1, 1, 1, 1, 1, 1, 1, 1, -1, -1, 1, -1, 1, 1, 1, -1, 1, 1, -1, -1, -1, 1, 1, 1, -1, 1, 1, 1, -1, 1, 1, -1, -1, 1, 1, -1, 1, -1, 1, 1, -1, 1, -1, -1, 1, -1, 1, 1, -1, 1, 1, 1, -1, -1, -1, -1, 1, -1, 1, -1, -1, 1, -1, 1, -1, -1, 1, 1, -1, 1, -1, 1, 1, -1, -1, -1, 1, -1, 1, -1, 1, 1, 1, 1, 1, -1, -1, -1, -1, 1, -1, 1, -1, 1, -1, 1, -1, -1, -1, -1, -1, 1, 1, 1, 1, -1, 1, -1, -1, -1, 1, 1, 1, 1, -1, 1, -1, 1, -1, 1, -1, -1, -1, -1, -1, 1, 1, -1, -1, 1, -1, -1, 1, -1, -1, 1, 1, -1, 1, 1, -1, -1, -1, 1, -1, 1, 1, 1, 1, 1, 1, -1, -1, -1, 1, 1, -1, 1, 1, -1, -1, -1, -1, -1, -1, 1, 1, 1, -1, 1, -1, 1, -1, -1, -1, -1, 1, -1, 1, 1, 1, -1, 1, -1, -1, -1, -1, 1, -1, 1, -1, -1, -1, 1, -1, -1, 1, -1, 1, 1, 1, -1, 1, -1, 1, 1, -1, -1, -1, 1, 1, -1, 1, 1, -1, 1, 1, -1, -1, 1, -1, 1, -1, -1, 1, -1, 1, 1, -1, 1, -1, 1, 1, -1, -1, 1, 1, -1, 1, -1, -1, 1, 1, 1, 1, -1, 1, -1, 1, 1, -1, -1, -1, 1, 1, 1, -1, -1, -1, -1, 1, -1, 1, -1, 1, 1, -1, -1, -1, -1, 1, 1, -1, 1, 1, 1, -1, 1, -1, 1, -1, -1, -1, -1, 1, 1, 1, 1, -1, 1, -1, -1, 1, 1, -1, 1, 1, 1, 1, -1, -1, 1, 1, 1, -1, -1, 1, 1, 1, 1, 1, 1, -1, -1, 1, -1, -1, 1, -1, 1, 1, -1, -1, -1, 1, 1, 1, -1, -1, 1, 1, 1, 1, 1, 1, 1, -1, -1, -1, 1, 1, 1, 1, 1, 1, 1, 1, 1, -1, 1, -1, 1, 1, 1, 1, 1, -1, 1, -1, 1, -1, -1, 1, 1, 1, 1, 1, 1, 1, 1, 1, -1, -1, 1, 1, -1, 1, 1, 1, 1, 1, 1, -1, -1, 1, 1, 1, 1, 1, 1, 1, -1, 1, -1, -1, 1, 1, 1, 1, -1, 1, 1, -1, -1, -1, 1, 1, 1, -1, 1, 1, 1, 1, 1, -1, 1, -1, 1, 1, 1, -1, 1, 1, 1, -1, -1, 1, 1, -1, 1, 1, 1, 1, 1, -1, 1, -1, -1, 1, 1, 1, 1, 1, 1, -1, 1, -1, -1, 1, 1, 1, 1, 1, 1, 1, 1, 1, 1, -1, -1, 1, 1, 1, 1, 1, 1, -1, 1, 1, -1, -1, 1, 1, 1, 1, 1, 1, 1, 1, 1, 1, -1, 1, 1, 1, 1, 1, 1, 1, -1, 1, 1, -1, 1, 1, 1, 1, -1, 1, 1, -1, 1, 1, -1, 1, 1, 1, 1, 1, 1, 1, 1, 1, 1, -1, 1, 1, 1, 1, 1, 1, 1, -1, 1, 1, -1, 1, 1, 1, 1, 1, -1, 1, 1, 1, -1, 1, 1, 1, -1, -1, 1, 1, 1, 1, 1, 1, -1, 1, 1, 1, 1, 1, -1, -1, 1, -1, -1, 1, 1, 1, 1, 1, 1, -1, 1, -1, 1, -1, 1, 1, 1, 1, 1, 1, -1, -1, 1, 1, -1, -1, 1, 1, 1, 1, 1, -1, 1, -1, 1, -1, 1, 1, -1, 1, 1, -1, -1, 1, -1, -1, -1, 1, 1, 1, 1, 1, -1, -1, 1, -1, -1, -1, -1, 1, 1, 1, -1, 1, -1, 1, -1, -1, -1, 1, 1, 1, 1, 1, 1, -1, 1, -1, -1, -1, 1, 1, 1, -1, 1, -1, -1, -1, -1, -1, -1, 1, 1, -1, 1, 1, 1, -1, 1, -1, -1, -1, -1, 1, -1, 1, -1, 1, -1, -1, -1, 1, -1, 1, -1, -1, 1, -1, -1, 1, -1, -1, -1, -1, 1, -1, 1, -1, -1, 1, 1, -1, -1, -1, 1, -1, 1, 1, 1, -1, -1, 1, -1, -1, -1, -1, 1, -1, -1, 1, -1, 1, -1, -1, -1, -1, -1, 1, -1, 1, -1, -1, 1, -1, -1, -1, -1, 1, 1, -1, 1, -1, -1, -1, 1, -1, -1, 1, -1, -1, 1, 1, -1, -1, -1, -1, -1, -1, -1, -1, -1, 1, -1, -1, -1, -1, 1, -1, 1, 1, -1, -1, -1, -1, -1, -1, -1, -1, 1, -1, -1, -1, -1, -1, -1, -1, -1, -1, 1, -1, -1, 1, -1, -1, 1, -1, -1, -1, -1, 1, 1, 1, -1, 1, -1, 1, -1, -1, -1, 1, 1, -1, 1, -1, 1, -1, 1, -1, -1, -1, -1, -1, -1, 1, -1, -1, 1, -1, -1, -1, -1, 1, 1, -1, -1, 1, -1, -1, -1, -1, 1, -1, 1, 1, 1, -1, -1, 1, -1, -1, 1, -1, -1, -1, 1, -1, -1, -1, -1, 1, -1, -1, -1, -1, -1, 1, 1, -1, 1, -1, -1, 1, -1, -1, 1, -1, 1, 1, -1, 1, -1, 1, -1, 1, -1, -1, 1, 1, -1, -1, -1, -1, -1, -1, 1, -1, -1, -1, 1, 1, 1, -1, -1, 1, -1, 1, 1, 1, -1, -1, 1, -1, -1, -1, -1, -1, 1, -1, 1, -1, 1, 1, -1, -1, -1, -1, 1, 1, -1, 1, 1, 1, 1, -1, 1, -1, -1, 1, -1, -1, -1, 1, -1, 1, 1, -1, 1, -1, -1, 1, -1, -1, 1, 1, -1, -1, 1, -1, 1, -1, -1, 1, 1, -1, 1, 1, -1, -1, 1, 1, 1, 1, -1, 1, -1, 1, -1, -1, 1, -1, -1, -1, 1, -1, 1, -1, 1, 1, -1, -1, -1, -1, 1, 1, -1, 1, -1, 1, 1, -1, -1, 1, -1, 1, 1, 1, 1, -1, 1, 1, 1, 1, -1, -1, 1, -1, -1, 1, -1, 1, 1, -1, 1, 1, -1, 1, 1, -1, 1, 1, -1, 1, 1, 1, 1, -1, 1, -1, -1, 1, -1, 1, 1, -1, 1, 1, -1, 1, -1, -1, 1, 1, 1, -1, -1, -1, 1, -1, 1, 1, -1, 1, 1, -1, 1, 1, 1, 1, -1, 1, 1, 1, 1, -1, -1, 1, 1, 1, 1, 1, 1, -1, 1, 1, -1, 1, 1, 1, 1, -1, 1, 1, 1, 1, 1, -1, -1, 1, 1, -1, -1, 1, 1, -1, -1, 1, 1, -1, 1, -1, 1, -1, -1, 1, -1, 1, 1, 1, -1, -1, 1, 1, -1, -1, 1, -1, -1, 1, 1, -1, -1, 1, -1, -1, -1, 1, 1, -1, 1, 1, -1, -1, -1, 1, -1, -1, 1, -1, -1, 1, -1, -1, -1, 1, 1, -1, -1, 1, -1, -1, 1, 1, 1, -1, -1, 1, 1, -1, 1, 1, -1, 1, 1, -1, -1, 1, -1, -1, -1, -1, -1, -1, -1, 1, 1, -1, -1, 1, -1, 1, -1, -1, 1, 1, 1, 1, -1, 1, -1, -1, -1, 1, 1, 1, 1, -1, 1, -1, -1, 1, -1, 1, 1, 1, -1, 1, -1, -1, -1, 1, 1, -1, -1, 1, 1, -1, 1, -1, -1, -1, -1, 1, -1, 1, -1, 1, 1, 1, -1, -1, -1, -1, 1, -1, 1, 1, 1, -1, 1, -1, -1, -1, -1, 1, 1, 1, 1, -1, 1, -1, -1, 1, -1, 1, -1, 1, 1, 1, -1, 1, 1, -1, -1, -1, 1, -1, -1, 1, 1, -1, 1, 1, -1, 1, -1, 1, 1, 1, 1, 1, -1, 1, 1, -1, -1, -1, -1, 1, -1, 1, 1, 1, -1, -1, -1, 1, -1, -1, 1, 1, 1, 1, -1, -1, -1, 1, -1, 1, -1, 1, 1, 1, 1, 1, -1, 1, -1, -1, -1, 1, 1, 1, 1, 1, 1, -1, -1, -1, 1, -1, 1, 1, 1, 1, -1, -1, -1, 1, -1, -1, -1, 1, 1, 1, 1, -1, 1, -1, 1, -1, -1, 1, 1, 1, -1, 1, -1, -1, 1, -1, -1, -1, -1, 1, 1, 1, -1, 1, -1, 1, -1, -1, -1, -1, 1, 1, 1, 1, 1, -1, -1, -1, 1, -1, -1, 1, 1, 1, 1, -1, -1, -1, 1, -1, -1, -1, 1, 1, 1, -1, -1, 1, -1, -1, -1, -1, -1, 1, 1, -1, 1, -1, -1, -1, -1, 1, -1, -1, 1, 1, -1, 1, 1, -1, -1, 1, 1, -1, -1, 1, 1, 1, -1, 1, -1, -1, -1, 1, 1, -1, 1, -1, -1, -1, -1, -1, -1, 1, 1, -1, -1, 1, 1, -1, -1, -1, -1, -1, 1, -1, -1, 1, 1, -1, 1, 1, -1, -1, 1, 1, -1, -1, 1, 1, 1, -1, 1, -1, 1, -1, 1, -1, 1, -1, 1, -1, -1, 1, -1, 1, -1, 1, -1, -1, 1, 1, -1, -1, 1, -1, 1, 1, 1, -1, -1, 1, 1, -1, -1, -1, -1, -1, 1, -1, -1, 1, 1, 1, -1, 1, -1, -1, 1, -1, 1, -1, 1, 1, 1, -1, -1, 1, -1, -1, 1, -1, -1, 1, 1, 1, -1, -1, 1, -1, 1, -1, -1, -1, 1, 1, 1, -1, -1, 1, -1, 1, -1, 1, -1, 1, 1, 1, -1, -1, -1, 1, -1, -1, 1, -1, 1, 1, 1, 1, -1, 1, -1, -1, -1, 1, 1, -1, 1, 1, 1, -1, -1, 1, -1, -1, -1, 1, 1, 1, 1, -1, 1, -1, 1, 1, -1, -1, -1, 1, 1, -1, 1, -1, 1, -1, -1, 1, 1, -1, 1, 1, 1, -1, -1, 1, 1, -1, 1, -1, 1, 1, -1, 1, 1, -1, -1, 1, -1, 1, -1, -1, 1, 1, -1, 1, -1, 1, -1, 1, -1, -1, -1, 1, 1, -1, 1, 1, -1, 1, -1, 1, -1, -1, -1, -1, -1, 1, -1, -1, -1, -1, -1, -1, -1, 1, 1, -1, 1, -1, 1, -1, -1, 1, 1, -1, 1, -1, 1, -1, -1, 1, -1, -1, -1, 1, -1, 1, -1, 1, -1, -1, -1, -1, -1, 1, -1, -1, 1, -1, -1, 1, -1, 1, -1, 1, -1, -1, -1, 1, -1, -1, 1, -1, -1, -1, 1, -1, 1, -1, -1, -1, 1, 1, -1, -1, -1, 1, -1, 1, -1, -1, -1, 1, 1, -1, -1, 1, 1, -1, -1, 1, -1, -1, 1, -1, -1, 1, -1, 1, -1, 1, -1, -1, -1, -1, 1, -1, -1, -1, 1, -1, -1, 1, -1, -1, -1, -1, 1, -1, -1, 1, -1, 1, -1, -1, -1, -1, 1, -1, -1, 1, 1, -1, -1, -1, 1, -1, -1, 1, 1, -1, -1, -1, 1, -1, 1, -1, -1, -1, 1, -1, -1, 1, 1, -1, -1, -1, -1, -1, -1, 1, 1, -1, -1, 1, 1, -1, -1, 1, 1, -1, 1, 1, -1, 1, -1, 1, -1, 1, 1, -1, -1, 1, 1, -1, 1, 1, -1, 1, -1, -1, -1, -1, 1, 1, -1, 1, -1, 1, -1, 1, 1, -1, -1, 1, -1, 1, 1, 1, -1, -1, 1, 1, -1, 1, 1, 1, 1, 1, -1, 1, -1, 1, -1, -1, -1, 1, 1, 1, 1, -1, 1, -1, 1, 1, 1, -1, 1, 1, 1, -1, -1, -1, -1, 1, 1, -1, -1, 1, -1, 1, 1, -1, -1, -1, 1, 1, 1, -1, 1, -1, 1, -1, -1, -1, -1, 1, 1, 1, -1, 1, -1, -1, -1, 1, -1, -1, 1, 1, -1, -1, 1, -1, -1, -1, -1, -1, -1, 1, 1, 1, 1, 1, -1, 1, 1, -1, -1, -1, 1, -1, -1, 1, 1, -1, 1, -1, 1, -1, 1, -1, 1, 1, 1, -1, -1, 1, -1, -1, 1, -1, 1, 1, 1, 1, 1, -1, -1, 1, -1, 1, -1, 1, 1, 1, -1, 1, -1, 1, -1, 1, -1, 1, -1, 1, 1, -1, -1, 1, 1, -1, 1, -1, 1, 1, 1, 1, -1, 1, -1, 1, -1, 1, 1, 1, -1, 1, -1, 1, -1, 1, -1, 1, 1, -1, 1, 1, 1, 1, -1, 1, -1, 1, 1, -1, 1, 1, 1, 1, -1, 1, 1, 1, -1, 1, 1, 1, 1, 1, 1, -1, 1, 1, 1, 1, 1, 1, 1, 1, 1, -1, -1, -1, 1, 1, 1, -1, 1, 1, 1, 1, -1, 1, -1, 1, 1, 1, 1, 1, 1, 1, 1, 1, 1, -1, -1, 1, 1, 1, 1, 1, 1, 1, -1, 1, -1, 1, 1, -1, 1, -1, 1, 1, 1, 1, 1, -1, 1, 1, 1, 1, 1, 1, 1, -1, 1, -1, 1, 1, 1, -1, 1, 1, 1, 1, -1, 1, -1, 1, 1, 1, 1, 1, -1, 1, 1, -1, 1, -1, 1, 1, 1, 1, 1, 1, 1, 1, 1, -1, -1, -1, 1, 1, 1, 1, 1, -1, 1, 1, -1, 1, 1, 1, 1, 1, 1, 1, 1, 1, 1, 1, -1, -1, 1, 1, 1, 1, 1, 1, 1, -1, 1, 1, 1, 1, 1, 1, -1, 1, -1, 1, 1, 1, -1, -1, 1, 1, 1, 1, 1, -1, -1, -1, 1, -1, -1, 1, 1, 1, 1, 1, 1, -1, 1, -1, 1, -1, 1, 1, 1, 1, 1, -1, -1, 1, 1, 1, -1, -1, 1, 1, 1, 1, -1, -1, 1, 1, -1, 1, 1, 1, 1, 1, 1, -1, 1, 1, 1, -1, 1, 1, 1, 1, -1, 1, -1, -1, 1, 1, -1, 1, -1, 1, 1, 1, -1, -1, -1, 1, 1, -1, 1, 1, -1, 1, -1, 1, -1, 1, 1, 1, -1, 1, 1, 1, 1, -1, -1, -1, -1, 1, 1, -1, 1, 1, -1, 1, 1, 1, -1, 1, -1, 1, 1, 1, 1, -1, 1, 1, -1, -1, -1, 1, 1, 1, -1, -1, -1, 1, 1, -1, -1, 1, 1, 1, 1, 1, 1, -1, 1, 1, 1, -1, -1, -1, 1, -1, 1, -1, -1, -1, 1, -1, -1, -1, -1, -1, 1, 1, -1, -1, 1, 1, -1, -1, -1, -1, -1, 1, 1, 1, -1, 1, 1, -1, -1, -1, -1, 1, 1, 1, -1, -1, 1, 1, -1, -1, -1, -1, 1, 1, -1, -1, -1, 1, -1, 1, -1, 1, 1, -1, 1, 1, 1, -1, 1, 1, -1, -1, -1, 1, -1, 1, 1, 1, -1, 1, 1, -1, -1, -1, 1, 1, 1, 1, 1, 1, 1, -1, -1, -1, -1, 1, 1, 1, 1, 1, -1, -1, 1, -1, 1, -1, 1, -1, 1, 1, 1, -1, 1, 1, -1, -1, 1, -1, 1, -1, 1, 1, -1, 1, -1, -1, -1, -1, 1, -1, 1, 1, 1, 1, -1, -1, -1, -1, -1, -1, 1, -1, 1, 1, -1, -1, 1, -1, -1, -1, 1, 1, 1, 1, 1, -1, -1, 1, -1, 1, -1, 1, -1, -1, -1, -1, 1, -1, 1, -1, -1, -1, 1, -1, -1, 1, 1, -1, 1, -1, -1, -1, -1, -1, 1, -1, 1, 1, -1, 1, -1, -1, -1, 1, -1, 1, -1, -1, -1, -1, -1, -1, -1, -1, 1, -1, 1, -1, -1, -1, -1, -1, -1, -1, -1, 1, 1, 1, -1, 1, -1, -1, 1, -1, -1, -1, 1, 1, 1, -1, -1, 1, -1, -1, -1, -1, -1, 1, -1, 1, -1, -1, 1, 1, -1, -1, -1, 1, 1, -1, 1, -1, -1, 1, -1, -1, 1, -1, -1, -1, -1, 1, -1, -1, 1, -1, 1, -1, -1, -1, -1, 1, 1, 1, -1, 1, -1, -1, -1, 1, -1, 1, 1, 1, -1, 1, 1, -1, 1, -1, 1, -1, 1, 1, -1, 1, -1, -1, -1, -1, -1, -1, 1, 1, 1, 1, 1, -1
BQP_DATA, 2897, 13438, -6334.000000, -7856.000000, -18152.000000, -19674.000000, 8192.001086, 7602, 1854
